Normalized Data/p03_3_normalized_split0.vrp
NAME:p03_3_NORMALIZED_split
BEST_KNOWN: 0
COMMENT: 0
DIMENSION: 420
CAPACITY: 100
EDGE_WEIGHT_FORMAT: FUNCTION
EDGE_WEIGHT_TYPE: EXACT_2D
NODE_COORD_SECTION
1 0.00000 0.00000
2 49 -24
3 49 -24
4 49 -24
5 49 -24
6 49 -24
7 -23 41
8 -23 41
9 -23 41
10 -23 41
11 -23 41
12 -23 41
13 48 -24
14 48 -24
15 48 -24
16 48 -24
17 48 -24
18 -38 -31
19 -38 -31
20 -38 -31
21 -36 -2
22 -36 -2
23 -36 -2
24 -36 -2
25 -36 -2
26 -21 -1
27 -21 -1
28 -21 -1
29 -21 -1
30 -21 -1
31 -21 -1
32 32 6
33 32 6
34 32 6
35 32 6
36 10 5
37 10 5
38 10 5
39 10 5
40 -49 -18
41 -49 -18
42 -49 -18
43 -49 -18
44 -49 -18
45 28 13
46 28 13
47 28 13
48 48 -22
49 48 -22
50 48 -22
51 48 -22
52 43 32
53 43 32
54 43 32
55 -2 -38
56 -2 -38
57 32 -49
58 32 -49
59 41 -26
60 41 -26
61 41 -26
62 41 -26
63 41 -26
64 -29 14
65 -29 14
66 -29 14
67 -29 14
68 2 -47
69 2 -47
70 2 -47
71 2 -47
72 2 -47
73 2 -47
74 -11 8
75 -11 8
76 -11 8
77 -11 8
78 -5 15
79 -5 15
80 -5 15
81 -3 -9
82 -3 -9
83 -3 -9
84 -3 -9
85 15 46
86 15 46
87 15 46
88 -44 28
89 -44 28
90 -44 28
91 -44 28
92 -44 28
93 -44 28
94 -22 15
95 47 14
96 47 14
97 47 14
98 47 14
99 2 -46
100 2 -46
101 -4 26
102 -4 26
103 -4 26
104 -4 26
105 -4 26
106 29 -35
107 29 -35
108 29 -35
109 42 41
110 42 41
111 42 41
112 42 41
113 42 41
114 42 41
115 -5 -12
116 -5 -12
117 -5 -12
118 -5 -12
119 19 11
120 19 11
121 19 11
122 19 11
123 27 -11
124 27 -11
125 27 -11
126 27 -11
127 27 -11
128 27 -11
129 -48 -22
130 -48 -22
131 -48 -22
132 -19 -22
133 -19 -22
134 -19 -22
135 -19 -22
136 -19 -22
137 -41 -18
138 -41 -18
139 -41 -18
140 -41 -18
141 -41 -18
142 19 15
143 19 15
144 -30 -4
145 -30 -4
146 -30 -4
147 -30 -4
148 -30 -4
149 -30 -4
150 -26 49
151 -26 49
152 -26 49
153 -45 35
154 -45 35
155 -45 35
156 -48 4
157 -48 4
158 -48 4
159 -48 4
160 -48 4
161 -48 4
162 -34 -39
163 -34 -39
164 -34 -39
165 -13 -47
166 -13 -47
167 -13 -47
168 -13 -47
169 -17 32
170 -17 32
171 -17 32
172 -17 32
173 -17 32
174 -17 32
175 -17 32
176 21 -32
177 21 -32
178 21 -32
179 22 16
180 23 29
181 23 29
182 10 -47
183 10 -47
184 10 -47
185 10 -47
186 10 -47
187 10 -47
188 -47 -18
189 -47 -18
190 -47 -18
191 -47 -18
192 -47 -18
193 18 39
194 18 39
195 18 39
196 18 39
197 -20 -50
198 -20 -50
199 -20 -50
200 -20 -50
201 -20 -50
202 -20 -50
203 3 13
204 3 13
205 -44 -25
206 -44 -25
207 -44 -25
208 -44 -25
209 -44 -25
210 -44 -25
211 45 49
212 45 49
213 45 49
214 45 49
215 45 49
216 -1 -27
217 -1 -27
218 -1 -27
219 -1 -27
220 -1 -27
221 -1 -27
222 -6 33
223 -6 33
224 -6 33
225 -6 33
226 -6 33
227 -10 17
228 -10 17
229 -10 17
230 -10 17
231 -10 17
232 -10 17
233 14 34
234 14 34
235 7 -2
236 7 -2
237 7 -2
238 -26 29
239 -26 29
240 -26 29
241 -26 29
242 26 -47
243 26 -47
244 -32 37
245 -32 37
246 -32 37
247 -4 -42
248 -4 -42
249 -4 -42
250 -4 -42
251 -27 28
252 -27 28
253 -27 28
254 26 47
255 26 47
256 26 47
257 26 47
258 26 47
259 26 47
260 -27 0
261 -27 0
262 -2 -11
263 -2 -11
264 -2 -11
265 -2 -11
266 -2 -11
267 -48 -46
268 -48 -46
269 -41 22
270 -41 22
271 -41 22
272 -4 -49
273 -4 -49
274 -4 -49
275 -4 -49
276 -27 30
277 -27 30
278 -27 30
279 -27 30
280 -27 30
281 -27 30
282 26 -29
283 26 -29
284 26 -29
285 26 -29
286 26 -29
287 26 -29
288 -6 -26
289 -6 -26
290 -6 -26
291 -6 -26
292 -6 -26
293 -6 -26
294 -44 -24
295 -44 -24
296 -44 -24
297 -44 -24
298 -44 -24
299 -44 -24
300 21 -19
301 21 -19
302 21 -19
303 21 -19
304 43 -6
305 43 -6
306 43 -6
307 43 -6
308 43 -6
309 -11 16
310 -11 16
311 -11 16
312 -11 16
313 -11 16
314 -37 -35
315 -37 -35
316 -37 -35
317 -6 -36
318 -6 -36
319 46 -33
320 46 -33
321 46 -33
322 -13 -28
323 -13 -28
324 0 -20
325 0 -20
326 -8 1
327 -8 1
328 -8 1
329 -8 1
330 -8 1
331 -9 36
332 -9 36
333 -9 36
334 -9 36
335 -9 36
336 -18 12
337 -18 12
338 -18 12
339 -3 -7
340 -3 -7
341 -3 -7
342 -3 6
343 -3 6
344 -3 6
345 -3 6
346 -3 6
347 -28 -29
348 -28 -29
349 -28 -29
350 -28 -29
351 -28 -29
352 -28 -29
353 -28 -29
354 22 -10
355 22 -10
356 22 -10
357 22 -10
358 -22 -32
359 -22 -32
360 -22 -32
361 -22 -32
362 -22 -32
363 -36 -25
364 -36 -25
365 44 -3
366 44 -3
367 44 -3
368 44 -3
369 4 -27
370 4 -27
371 4 -27
372 4 -27
373 -15 45
374 -15 45
375 -15 45
376 -15 45
377 -15 45
378 -15 45
379 -15 45
380 37 -2
381 37 -2
382 37 -2
383 37 -2
384 37 -2
385 37 -2
386 23 28
387 23 28
388 23 28
389 23 28
390 23 28
391 23 28
392 23 28
393 -36 -16
394 -36 -16
395 -36 -16
396 -19 -25
397 -19 -25
398 -19 -25
399 -19 -25
400 -19 -25
401 -19 -25
402 15 5
403 15 5
404 -44 -21
405 -44 -21
406 -44 -21
407 -44 -21
408 -44 -21
409 -44 -21
410 -44 -21
411 -39 35
412 -39 35
413 -39 35
414 -13 -22
415 -13 -22
416 -13 -22
417 -13 -22
418 -13 -22
419 -13 -22
420 -13 -22
DEMAND_SECTION
1 0
2 20
3 1
4 1
5 1
6 1
7 20
8 20
9 5
10 1
11 1
12 1
13 20
14 20
15 5
16 1
17 1
18 20
19 20
20 1
21 20
22 1
23 1
24 1
25 1
26 20
27 5
28 1
29 1
30 1
31 1
32 10
33 1
34 1
35 1
36 20
37 5
38 1
39 1
40 10
41 5
42 1
43 1
44 1
45 20
46 20
47 1
48 20
49 20
50 5
51 1
52 20
53 1
54 1
55 20
56 20
57 20
58 1
59 20
60 5
61 1
62 1
63 1
64 20
65 20
66 5
67 1
68 20
69 5
70 1
71 1
72 1
73 1
74 20
75 10
76 1
77 1
78 20
79 10
80 1
81 20
82 10
83 1
84 1
85 20
86 20
87 10
88 20
89 10
90 5
91 1
92 1
93 1
94 20
95 20
96 20
97 1
98 1
99 10
100 5
101 20
102 20
103 5
104 1
105 1
106 20
107 10
108 5
109 20
110 5
111 1
112 1
113 1
114 1
115 10
116 1
117 1
118 1
119 20
120 20
121 1
122 1
123 20
124 20
125 1
126 1
127 1
128 1
129 20
130 20
131 5
132 20
133 20
134 5
135 1
136 1
137 20
138 1
139 1
140 1
141 1
142 20
143 10
144 20
145 20
146 1
147 1
148 1
149 1
150 20
151 10
152 5
153 20
154 5
155 1
156 20
157 5
158 1
159 1
160 1
161 1
162 20
163 20
164 1
165 20
166 5
167 1
168 1
169 20
170 20
171 5
172 1
173 1
174 1
175 1
176 20
177 10
178 1
179 20
180 10
181 5
182 20
183 10
184 5
185 1
186 1
187 1
188 20
189 10
190 1
191 1
192 1
193 10
194 5
195 1
196 1
197 20
198 5
199 1
200 1
201 1
202 1
203 10
204 5
205 20
206 20
207 5
208 1
209 1
210 1
211 10
212 1
213 1
214 1
215 1
216 20
217 10
218 5
219 1
220 1
221 1
222 20
223 20
224 5
225 1
226 1
227 20
228 20
229 1
230 1
231 1
232 1
233 20
234 10
235 10
236 1
237 1
238 20
239 10
240 1
241 1
242 20
243 10
244 20
245 20
246 10
247 20
248 10
249 1
250 1
251 10
252 5
253 1
254 20
255 10
256 1
257 1
258 1
259 1
260 10
261 5
262 20
263 20
264 5
265 1
266 1
267 20
268 20
269 20
270 20
271 5
272 20
273 20
274 5
275 1
276 10
277 5
278 1
279 1
280 1
281 1
282 20
283 10
284 5
285 1
286 1
287 1
288 10
289 5
290 1
291 1
292 1
293 1
294 20
295 20
296 1
297 1
298 1
299 1
300 20
301 20
302 1
303 1
304 20
305 10
306 5
307 1
308 1
309 20
310 20
311 5
312 1
313 1
314 20
315 5
316 1
317 20
318 5
319 10
320 5
321 1
322 20
323 5
324 10
325 5
326 20
327 20
328 5
329 1
330 1
331 20
332 20
333 5
334 1
335 1
336 20
337 20
338 1
339 20
340 5
341 1
342 20
343 10
344 1
345 1
346 1
347 20
348 10
349 5
350 1
351 1
352 1
353 1
354 20
355 10
356 5
357 1
358 10
359 1
360 1
361 1
362 1
363 20
364 1
365 20
366 5
367 1
368 1
369 20
370 20
371 5
372 1
373 20
374 20
375 5
376 1
377 1
378 1
379 1
380 20
381 20
382 1
383 1
384 1
385 1
386 20
387 20
388 5
389 1
390 1
391 1
392 1
393 20
394 20
395 5
396 20
397 20
398 5
399 1
400 1
401 1
402 20
403 5
404 20
405 10
406 5
407 1
408 1
409 1
410 1
411 20
412 10
413 1
414 20
415 10
416 5
417 1
418 1
419 1
420 1
DEPOT_SECTION
1
-1
EOF