Normalized Data/p03_3_normalized_split0.sol
419 -11 10 8 6 7 9 373 372 377 376 378 375 374 -13 15 16 14 12 320 319 318 107 105 106 285 286 -28 29 27 26 25 30 144 143 147 146 259 260 327 329 328 -35 203 202 79 77 78 341 343 342 344 345 -38 36 37 178 46 94 97 95 96 366 367 365 364 235 236 -50 48 49 47 4 3 1 2 5 61 58 62 60 59 -52 51 53 109 110 113 108 112 111 212 210 213 214 211 257 258 256 253 255 254 -56 57 242 241 181 186 185 184 182 183 323 -63 64 66 65 251 250 252 276 275 279 237 -73 76 74 75 93 337 335 336 -86 85 84 192 193 195 194 233 232 -87 89 91 90 92 88 153 152 154 412 411 410 277 278 280 -98 99 68 69 70 72 67 71 274 273 272 271 216 -104 102 100 101 103 222 225 221 224 223 -115 116 117 114 418 416 417 415 419 414 413 400 399 398 396 397 395 -118 119 44 45 401 -121 120 141 142 390 386 388 389 391 385 387 179 180 -133 134 314 315 313 19 17 18 363 362 -135 131 132 346 359 358 360 357 361 321 322 -137 139 138 140 130 129 128 41 40 39 43 42 191 189 188 190 187 -145 148 23 21 22 24 20 158 155 160 156 159 157 268 270 269 -150 151 149 244 245 243 239 240 238 -162 161 163 267 266 347 348 350 352 349 351 -171 174 170 168 169 172 173 334 333 330 332 331 -177 176 175 282 283 281 284 301 302 300 234 -196 197 201 200 198 199 165 167 164 166 317 316 288 289 290 291 292 287 -204 205 207 208 206 209 296 298 297 293 295 294 394 -220 217 218 215 219 54 55 248 247 249 246 -231 229 230 228 226 227 308 312 311 310 309 -262 261 265 264 263 324 371 370 368 369 -299 122 124 125 126 127 123 353 356 355 354 -304 305 306 303 307 382 379 384 381 380 383 33 32 31 34 402 -326 325 80 82 83 81 339 338 340 -392 393 136 403 409 404 407 408 405 406 0 





OBJ=
3089.980
BEST_KNOWN=
0.000